Problem:    
Rows:       192
Columns:    65 (48 integer, 48 binary)
Non-zeros:  584
Status:     INTEGER OPTIMAL
Objective:  value = 15.451221 (MINimum)

   No.   Row name        Activity     Lower bound   Upper bound
------ ------------    ------------- ------------- -------------
     1 r.5                   1015.45             0               
     2 r.6                  -994.874      -998.133               
     3 r.7                   15.4512             0               
     4 r.8                    5.1265      -990.905               
     5 r.9                   1015.45             0               
     6 r.10                  -996.74      -998.532               
     7 r.11                  15.4512             0               
     8 r.12                   5.1265      -994.154               
     9 r.13                  1015.45             0               
    10 r.14                 -998.208      -998.923               
    11 r.15                  15.4512             0               
    12 r.16                   5.1265      -994.926               
    13 r.17                  15.4512             0               
    14 r.18                 -999.715      -999.831               
    15 r.19                  1015.45             0               
    16 r.20                 -998.208      -998.671               
    17 r.21                  1015.45             0               
    18 r.22                 -999.285      -999.401               
    19 r.23                  15.4512             0               
    20 r.24                  3.25973      -996.214               
    21 r.25                  1015.45             0               
    22 r.26                 -999.884      -999.884               
    23 r.27                  15.4512             0               
    24 r.28                 0.116444      -996.943               
    25 r.29                  15.4512             0               
    26 r.30                  15.4512      -998.748               
    27 r.31                  1015.45             0               
    28 r.32                 -984.549      -996.611               
    29 r.33                  1015.45             0               
    30 r.34                 -984.549      -989.675               
    31 r.35                  15.4512             0               
    32 r.36                  15.4512      -969.658               
    33 r.37                        1             1             = 
    34 r.38                        1             1             = 
    35 r.39                        1             1             = 
    36 r.40                        1             1             = 
    37 r.41                        1             1             = 
    38 r.42                        1             1             = 
    39 r.43                        1             1             = 
    40 r.44                        1             1             = 
    41 r.45                        2             2               
    42 r.46                       -2         -1001               
    43 r.47                 -1.86677      -998.532               
    44 r.48                     1000             2               
    45 r.49                    -1000         -1001               
    46 r.50                     2000      -994.154               
    47 r.51                        2             2               
    48 r.52                       -2         -1001               
    49 r.53                 -3.33461      -998.923               
    50 r.54                     1000             2               
    51 r.55                    -1000         -1001               
    52 r.56                     2000      -994.926               
    53 r.57                  4.84125      -998.133               
    54 r.58                  1004.84      -990.905               
    55 r.59                 -996.665      -998.133               
    56 r.60                  3.33461      -990.905               
    57 r.61                 -995.589      -998.133               
    58 r.62                  4.41111      -990.905               
    59 r.63                 -998.133      -998.133               
    60 r.64                  1.86677      -990.905               
    61 r.65                  10.3247      -998.748               
    62 r.66                 -989.675      -996.611               
    63 r.67                  10.3247      -998.748               
    64 r.68                 -989.675      -996.611               
    65 r.69                 -989.675      -989.675               
    66 r.70                  10.3247      -969.658               
    67 r.71                 -989.675      -989.675               
    68 r.72                  10.3247      -969.658               
    69 r.73                        2             2               
    70 r.74                       -2         -1001               
    71 r.75                  1.86677       1.86677               
    72 r.76                     1000             2               
    73 r.77                    -1000         -1001               
    74 r.78                     2000       9.09459               
    75 r.79                        2             2               
    76 r.80                       -2         -1001               
    77 r.81                 -1.46784      -998.923               
    78 r.82                     1000             2               
    79 r.83                    -1000         -1001               
    80 r.84                     2000      -994.926               
    81 r.85                  2.97449      -998.532               
    82 r.86                  1004.84      -994.154               
    83 r.87                 -998.532      -998.532               
    84 r.88                  3.33461      -994.154               
    85 r.89                        2             2               
    86 r.90                       -2         -1001               
    87 r.91                 -2.54434      -999.401               
    88 r.92                     1000             2               
    89 r.93                    -1000         -1001               
    90 r.94                  1998.13      -996.214               
    91 r.95                 -996.857      -998.532               
    92 r.96                  5.01005      -994.154               
    93 r.97                 -996.857      -998.532               
    94 r.98                  5.01005      -994.154               
    95 r.99                  12.1915      -998.748               
    96 r.100                -987.809      -996.611               
    97 r.101                 10.3247      -998.748               
    98 r.102                -989.675      -996.611               
    99 r.103                -987.809      -989.675               
   100 r.104                 12.1915      -969.658               
   101 r.105                -989.675      -989.675               
   102 r.106                 10.3247      -969.658               
   103 r.107                       2             2               
   104 r.108                      -2         -1001               
   105 r.109                 3.33461       1.86677               
   106 r.110                    1000             2               
   107 r.111                   -1000         -1001               
   108 r.112                    2000       9.09459               
   109 r.113                       2             2               
   110 r.114                      -2         -1001               
   111 r.115                 1.46784       1.46784               
   112 r.116                    1000             2               
   113 r.117                   -1000         -1001               
   114 r.118                    2000       5.84617               
   115 r.119                    1001             2               
   116 r.120                   -1001         -1001               
   117 r.121                 998.493      -999.831               
   118 r.122                    1001             2               
   119 r.123                   -1001         -1001               
   120 r.124                 1996.67      -998.671               
   121 r.125                       2             2               
   122 r.126                      -2         -1001               
   123 r.127                 -1.0765      -999.401               
   124 r.128                    1000             2               
   125 r.129                   -1000         -1001               
   126 r.130                 1998.13      -996.214               
   127 r.131                -998.325      -998.923               
   128 r.132                 5.01005      -994.926               
   129 r.133                -998.325      -998.923               
   130 r.134                 5.01005      -994.926               
   131 r.135                 13.6593      -998.748               
   132 r.136                -986.341      -996.611               
   133 r.137                 10.3247      -998.748               
   134 r.138                -989.675      -996.611               
   135 r.139                -986.341      -989.675               
   136 r.140                 13.6593      -969.658               
   137 r.141                -989.675      -989.675               
   138 r.142                 10.3247      -969.658               
   139 r.143                    1001             2               
   140 r.144                   -1001         -1001               
   141 r.145                 3001.51        1.0765               
   142 r.146                    1001             2               
   143 r.147                   -1001         -1001               
   144 r.148                 2003.33       5.07379               
   145 r.149                    1001             2               
   146 r.150                   -1001         -1001               
   147 r.151                 3000.43      -999.401               
   148 r.152                    1001             2               
   149 r.153                   -1001         -1001               
   150 r.154                 2001.47      -996.214               
   151 r.155                -999.831      -999.831               
   152 r.156                -998.325      -998.671               
   153 r.157                -999.831      -999.831               
   154 r.158                -998.325      -998.671               
   155 r.159                       2             2               
   156 r.160                      -2         -1001               
   157 r.161                 2.54434       1.46784               
   158 r.162                    1000             2               
   159 r.163                   -1000         -1001               
   160 r.164                 2001.87       5.84617               
   161 r.165                       2             2               
   162 r.166                      -2         -1001               
   163 r.167                  1.0765        1.0765               
   164 r.168                    1000             2               
   165 r.169                   -1000         -1001               
   166 r.170                 2001.87       5.07379               
   167 r.171                    1001             2               
   168 r.172                   -1001         -1001               
   169 r.173                  999.57        0.1688               
   170 r.174                    1001             2               
   171 r.175                   -1001         -1001               
   172 r.176                 1998.53       1.32925               
   173 r.177                -999.401      -999.401               
   174 r.178                 3.14329      -996.214               
   175 r.179                -999.401      -999.401               
   176 r.180                 3.14329      -996.214               
   177 r.181                 14.7358      -998.748               
   178 r.182                -985.264      -996.611               
   179 r.183                 12.1915      -998.748               
   180 r.184                -987.809      -996.611               
   181 r.185                    1001             2               
   182 r.186                   -1001         -1001               
   183 r.187                    2000      -989.675               
   184 r.188                    1001             2               
   185 r.189                   -1001         -1001               
   186 r.190                    2000      -969.658               
   187 r.191                    1001             2               
   188 r.192                   -1001         -1001               
   189 r.193                    2000       1.25212               
   190 r.194                    1001             2               
   191 r.195                   -1001         -1001               
   192 r.196                    2000       3.38948               

   No. Column name       Activity     Lower bound   Upper bound
------ ------------    ------------- ------------- -------------
     1 tt                    15.4512             0               
     2 s_1_1        *              1             0             1 
     3 t_1_1                 10.3247             0               
     4 s_2_1        *              0             0             1 
     5 t_2_1                 10.3247             0               
     6 s_1_2        *              1             0             1 
     7 t_1_2                 12.1915             0               
     8 s_2_2        *              0             0             1 
     9 t_2_2                 10.3247             0               
    10 s_1_3        *              1             0             1 
    11 t_1_3                 13.6593             0               
    12 s_2_3        *              0             0             1 
    13 t_2_3                 10.3247             0               
    14 s_1_4        *              0             0             1 
    15 t_1_4                 1015.17             0               
    16 s_2_4        *              1             0             1 
    17 t_2_4                 13.6593             0               
    18 s_1_5        *              1             0             1 
    19 t_1_5                 14.7358             0               
    20 s_2_5        *              0             0             1 
    21 t_2_5                 12.1915             0               
    22 s_1_6        *              1             0             1 
    23 t_1_6                 15.3348             0               
    24 s_2_6        *              0             0             1 
    25 t_2_6                 15.3348             0               
    26 s_1_7        *              0             0             1 
    27 t_1_7                       0             0               
    28 s_2_7        *              1             0             1 
    29 t_2_7                       0             0               
    30 s_1_8        *              1             0             1 
    31 t_1_8                       0             0               
    32 s_2_8        *              0             0             1 
    33 t_2_8                       0             0               
    34 r_1_1_2      *              0             0             1 
    35 u_1_1_2      *              0             0             1 
    36 r_2_1_2      *              1             0             1 
    37 u_2_1_2      *              0             0             1 
    38 r_1_1_3      *              0             0             1 
    39 u_1_1_3      *              0             0             1 
    40 r_2_1_3      *              1             0             1 
    41 u_2_1_3      *              0             0             1 
    42 r_1_2_3      *              0             0             1 
    43 u_1_2_3      *              0             0             1 
    44 r_2_2_3      *              1             0             1 
    45 u_2_2_3      *              0             0             1 
    46 r_1_2_5      *              0             0             1 
    47 u_1_2_5      *              0             0             1 
    48 r_2_2_5      *              1             0             1 
    49 u_2_2_5      *              0             0             1 
    50 r_1_3_4      *              1             0             1 
    51 u_1_3_4      *              0             0             1 
    52 r_2_3_4      *              1             0             1 
    53 u_2_3_4      *              0             0             1 
    54 r_1_3_5      *              0             0             1 
    55 u_1_3_5      *              0             0             1 
    56 r_2_3_5      *              1             0             1 
    57 u_2_3_5      *              0             0             1 
    58 r_1_4_5      *              1             0             1 
    59 u_1_4_5      *              0             0             1 
    60 r_2_4_5      *              1             0             1 
    61 u_2_4_5      *              0             0             1 
    62 r_1_7_8      *              1             0             1 
    63 u_1_7_8      *              0             0             1 
    64 r_2_7_8      *              1             0             1 
    65 u_2_7_8      *              0             0             1 

Integer feasibility conditions:

KKT.PE: max.abs.err = 4.55e-13 on row 141
        max.rel.err = 7.54e-17 on row 141
        High quality

KKT.PB: max.abs.err = 6.66e-16 on row 163
        max.rel.err = 3.21e-16 on row 163
        High quality

End of output
